100
1000
200
200
198
198
197
196
195
195
194
194
194
193
193
193
192
191
191
189
189
188
188
188
187
187
187
187
187
186
186
185
183
182
182
181
180
180
179
178
177
177
177
177
177
176
176
176
176
175
175
175
173
173
171
171
170
170
169
168
168
167
166
166
166
166
166
166
166
164
164
164
164
164
164
163
163
162
162
161
160
160
159
159
158
158
157
157
156
155
155
154
154
153
153
153
153
152
151
151
151
150
